592  592  592  592  -1  
408  408  408  408  -1  
276  276  276  276  -1  
504  504  504  504  -1  
378  378  378  378  -1  
628  628  628  628  -1  
500  500  500  500  -1  
738  738  738  738  -1  
548  548  548  548  -1  
442  442  442  442  -1  
490  490  490  490  -1  
680  680  680  680  -1  
446  446  446  446  -1  
344  344  344  344  -1  
676  676  676  676  -1  
